NAME: instance_2337
TYPE: TSP
DIMENSION: 20
EDGE_WEIGHT_TYPE: EUC_2D
NODE_COORD_SECTION
0 48.14 61.35
1 43.91 34.32
2 49.62 74.14
3 34.62 62.96
4 71.93 23.33
5 96.25 73.46
6 54.51 85.68
7 93.99 91.98
8 85.13 64.45
9 13.66 40.94
10 58.23 67.32
11 75.84 10.81
12 39.16 63.16
13 52.49 51.98
14 0.95 60.55
15 33.63 30.31
16 18.21 90.53
17 54.66 94.90
18 90.64 14.31
19 66.14 23.24
EOF
